# Solution for model r5_t18_m7_6
# Finished Task: 17 / 18
# Makespan: 465.0, Total Distance: 272.0, Total Time: 4.0609
# R O S F
0 0 9 0.0 0.0
1 1 21 0.0 0.0
2 2 15 6.0 6.0
3 3 12 10.0 10.0
4 4 16 0.0 0.0
5 2 13 316.0 344.0
6 1 10 361.0 385.0
7 3 18 245.0 276.0
8 4 -1 429.0 465.0
9 0 22 114.0 144.0
10 1 -1 395.0 429.0
11 -1 -1 437.0 465.0
12 3 7 175.0 206.0
13 2 -1 356.0 395.0
14 1 20 125.0 145.0
15 2 5 78.0 116.0
16 4 17 333.0 372.0
17 4 8 372.0 408.0
18 3 -1 276.0 307.0
19 0 -1 324.0 356.0
20 1 6 279.0 310.0
21 1 14 82.0 113.0
22 0 19 276.0 304.0
